sat
(:added-eqs                   17919
 :arith-bound-propagations-lp 61738
 :arith-conflicts             1481
 :arith-fixed-eqs             4837
 :arith-lower                 89647
 :arith-make-feasible         35847
 :arith-max-columns           870
 :arith-max-rows              441
 :arith-offset-eqs            13355
 :arith-upper                 69219
 :binary-propagations         110852
 :conflicts                   1842
 :decisions                   22370
 :del-clause                  75
 :final-checks                1
 :max-memory                  32.06
 :memory                      21.10
 :minimized-lits              8901
 :mk-bool-var                 3799
 :mk-clause                   2522
 :mk-clause-binary            5365
 :num-allocs                  1517328792
 :num-checks                  1
 :propagations                138405
 :restarts                    5
 :rlimit-count                2452063
 :solve-eqs-elim-vars         355
 :solve-eqs-steps             2203
 :time                        7.23
 :total-time                  7.31)
